p cnf 1076 2718
-1 -2 0
1 2 0
-3 -4 0
3 4 0
-5 -6 0
5 6 0
-7 -8 0
7 8 0
-9 -10 0
9 10 0
-11 -12 0
11 12 0
-13 -14 0
13 14 0
-15 -16 0
15 16 0
-17 -18 0
17 18 0
-19 -20 0
19 20 0
-21 -22 0
21 22 0
8 -23 0
1 -23 0
-8 -1 23 0
3 -24 0
10 -24 0
-3 -10 24 0
25 -26 0
5 -26 0
-25 -5 26 0
2 -27 0
7 -27 0
-2 -7 27 0
9 -28 0
4 -28 0
-9 -4 28 0
-29 -23 0
29 23 0
-30 -24 0
30 24 0
-31 -27 0
31 27 0
-32 -28 0
32 28 0
29 -33 0
31 -33 0
-29 -31 33 0
30 -34 0
32 -34 0
-30 -32 34 0
34 -35 0
27 -35 0
-34 -27 35 0
34 -36 0
26 -36 0
-34 -26 36 0
-37 -35 0
37 35 0
36 -38 0
33 -38 0
-36 -33 38 0
37 -39 0
32 -39 0
-37 -32 39 0
-40 -38 0
40 38 0
40 -41 0
39 -41 0
-40 -39 41 0
-42 -41 0
42 41 0
25 -43 0
41 -43 0
-25 -41 43 0
2 -44 0
41 -44 0
-2 -41 44 0
4 -45 0
41 -45 0
-4 -41 45 0
6 -46 0
41 -46 0
-6 -41 46 0
8 -47 0
41 -47 0
-8 -41 47 0
10 -48 0
41 -48 0
-10 -41 48 0
6 -49 0
42 -49 0
-6 -42 49 0
8 -50 0
42 -50 0
-8 -42 50 0
42 -51 0
10 -51 0
-42 -10 51 0
25 -52 0
42 -52 0
-25 -42 52 0
2 -53 0
42 -53 0
-2 -42 53 0
42 -54 0
4 -54 0
-42 -4 54 0
-55 -43 0
55 43 0
-56 -44 0
56 44 0
-57 -45 0
57 45 0
-58 -46 0
58 46 0
-59 -47 0
59 47 0
-60 -48 0
60 48 0
-61 -49 0
61 49 0
-62 -50 0
62 50 0
-63 -51 0
63 51 0
-64 -52 0
64 52 0
-65 -53 0
65 53 0
-66 -54 0
66 54 0
55 -67 0
61 -67 0
-55 -61 67 0
56 -68 0
62 -68 0
-56 -62 68 0
63 -69 0
57 -69 0
-63 -57 69 0
58 -70 0
64 -70 0
-58 -64 70 0
59 -71 0
65 -71 0
-59 -65 71 0
60 -72 0
66 -72 0
-60 -66 72 0
-73 -67 0
73 67 0
-74 -68 0
74 68 0
-75 -69 0
75 69 0
-76 -70 0
76 70 0
-77 -71 0
77 71 0
14 -78 0
71 -78 0
-14 -71 78 0
-79 -72 0
79 72 0
16 -80 0
72 -80 0
-16 -72 80 0
76 -81 0
11 -81 0
-76 -11 81 0
13 -82 0
77 -82 0
-13 -77 82 0
-83 -78 0
83 78 0
15 -84 0
79 -84 0
-15 -79 84 0
-85 -80 0
85 80 0
-86 -82 0
86 82 0
-87 -84 0
87 84 0
83 -88 0
86 -88 0
-83 -86 88 0
85 -89 0
87 -89 0
-85 -87 89 0
89 -90 0
82 -90 0
-89 -82 90 0
89 -91 0
81 -91 0
-89 -81 91 0
-92 -90 0
92 90 0
91 -93 0
88 -93 0
-91 -88 93 0
87 -94 0
92 -94 0
-87 -92 94 0
-95 -93 0
95 93 0
95 -96 0
94 -96 0
-95 -94 96 0
-97 -96 0
97 96 0
76 -98 0
96 -98 0
-76 -96 98 0
77 -99 0
96 -99 0
-77 -96 99 0
79 -100 0
96 -100 0
-79 -96 100 0
96 -101 0
12 -101 0
-96 -12 101 0
14 -102 0
96 -102 0
-14 -96 102 0
16 -103 0
96 -103 0
-16 -96 103 0
97 -104 0
12 -104 0
-97 -12 104 0
14 -105 0
97 -105 0
-14 -97 105 0
97 -106 0
16 -106 0
-97 -16 106 0
76 -107 0
97 -107 0
-76 -97 107 0
97 -108 0
77 -108 0
-97 -77 108 0
97 -109 0
79 -109 0
-97 -79 109 0
-110 -98 0
110 98 0
-111 -99 0
111 99 0
-112 -100 0
112 100 0
-113 -101 0
113 101 0
-114 -102 0
114 102 0
-115 -103 0
115 103 0
-116 -104 0
116 104 0
-117 -105 0
117 105 0
-118 -106 0
118 106 0
-119 -107 0
119 107 0
-120 -108 0
120 108 0
-121 -109 0
121 109 0
110 -122 0
116 -122 0
-110 -116 122 0
111 -123 0
117 -123 0
-111 -117 123 0
118 -124 0
112 -124 0
-118 -112 124 0
113 -125 0
119 -125 0
-113 -119 125 0
120 -126 0
114 -126 0
-120 -114 126 0
121 -127 0
115 -127 0
-121 -115 127 0
122 -128 0
73 -128 0
-122 -73 128 0
-129 -122 0
129 122 0
74 -130 0
123 -130 0
-74 -123 130 0
-131 -123 0
131 123 0
124 -132 0
75 -132 0
-124 -75 132 0
-133 -124 0
133 124 0
-134 -125 0
134 125 0
-135 -126 0
135 126 0
126 -136 0
20 -136 0
-126 -20 136 0
-137 -127 0
137 127 0
127 -138 0
22 -138 0
-127 -22 138 0
131 -139 0
68 -139 0
-131 -68 139 0
-140 -130 0
140 130 0
-141 -132 0
141 132 0
69 -142 0
133 -142 0
-69 -133 142 0
134 -143 0
17 -143 0
-134 -17 143 0
135 -144 0
19 -144 0
-135 -19 144 0
-145 -136 0
145 136 0
137 -146 0
21 -146 0
-137 -21 146 0
-147 -138 0
147 138 0
-148 -139 0
148 139 0
-149 -142 0
149 142 0
-150 -144 0
150 144 0
-151 -146 0
151 146 0
148 -152 0
140 -152 0
-148 -140 152 0
149 -153 0
141 -153 0
-149 -141 153 0
145 -154 0
150 -154 0
-145 -150 154 0
151 -155 0
147 -155 0
-151 -147 155 0
153 -156 0
130 -156 0
-153 -130 156 0
128 -157 0
153 -157 0
-128 -153 157 0
155 -158 0
144 -158 0
-155 -144 158 0
155 -159 0
143 -159 0
-155 -143 159 0
-160 -156 0
160 156 0
157 -161 0
152 -161 0
-157 -152 161 0
-162 -158 0
162 158 0
159 -163 0
154 -163 0
-159 -154 163 0
160 -164 0
141 -164 0
-160 -141 164 0
-165 -161 0
165 161 0
151 -166 0
162 -166 0
-151 -162 166 0
-167 -163 0
167 163 0
164 -168 0
165 -168 0
-164 -165 168 0
167 -169 0
166 -169 0
-167 -166 169 0
-170 -168 0
170 168 0
73 -171 0
168 -171 0
-73 -168 171 0
74 -172 0
168 -172 0
-74 -168 172 0
168 -173 0
75 -173 0
-168 -75 173 0
129 -174 0
168 -174 0
-129 -168 174 0
131 -175 0
168 -175 0
-131 -168 175 0
168 -176 0
133 -176 0
-168 -133 176 0
-177 -169 0
177 169 0
134 -178 0
169 -178 0
-134 -169 178 0
135 -179 0
169 -179 0
-135 -169 179 0
169 -180 0
137 -180 0
-169 -137 180 0
169 -181 0
18 -181 0
-169 -18 181 0
20 -182 0
169 -182 0
-20 -169 182 0
169 -183 0
22 -183 0
-169 -22 183 0
170 -184 0
129 -184 0
-170 -129 184 0
131 -185 0
170 -185 0
-131 -170 185 0
170 -186 0
133 -186 0
-170 -133 186 0
170 -187 0
73 -187 0
-170 -73 187 0
170 -188 0
74 -188 0
-170 -74 188 0
170 -189 0
75 -189 0
-170 -75 189 0
-190 -171 0
190 171 0
-191 -172 0
191 172 0
-192 -173 0
192 173 0
-193 -174 0
193 174 0
-194 -175 0
194 175 0
-195 -176 0
195 176 0
177 -196 0
18 -196 0
-177 -18 196 0
20 -197 0
177 -197 0
-20 -177 197 0
177 -198 0
22 -198 0
-177 -22 198 0
134 -199 0
177 -199 0
-134 -177 199 0
135 -200 0
177 -200 0
-135 -177 200 0
137 -201 0
177 -201 0
-137 -177 201 0
-202 -178 0
202 178 0
-203 -179 0
203 179 0
-204 -180 0
204 180 0
-205 -181 0
205 181 0
-206 -182 0
206 182 0
-207 -183 0
207 183 0
-208 -184 0
208 184 0
-209 -185 0
209 185 0
-210 -186 0
210 186 0
-211 -187 0
211 187 0
-212 -188 0
212 188 0
-213 -189 0
213 189 0
-214 -196 0
214 196 0
-215 -197 0
215 197 0
-216 -198 0
216 198 0
-217 -199 0
217 199 0
-218 -200 0
218 200 0
-219 -201 0
219 201 0
208 -220 0
190 -220 0
-208 -190 220 0
191 -221 0
209 -221 0
-191 -209 221 0
210 -222 0
192 -222 0
-210 -192 222 0
211 -223 0
193 -223 0
-211 -193 223 0
212 -224 0
194 -224 0
-212 -194 224 0
213 -225 0
195 -225 0
-213 -195 225 0
202 -226 0
214 -226 0
-202 -214 226 0
203 -227 0
215 -227 0
-203 -215 227 0
204 -228 0
216 -228 0
-204 -216 228 0
205 -229 0
217 -229 0
-205 -217 229 0
218 -230 0
206 -230 0
-218 -206 230 0
207 -231 0
219 -231 0
-207 -219 231 0
-232 -220 0
232 220 0
-233 -221 0
233 221 0
-234 -222 0
234 222 0
-235 -223 0
235 223 0
-236 -224 0
236 224 0
-237 -225 0
237 225 0
-238 -226 0
238 226 0
-239 -227 0
239 227 0
-240 -228 0
240 228 0
-241 -229 0
241 229 0
-242 -230 0
242 230 0
-243 -231 0
243 231 0
226 -244 0
235 -244 0
-226 -235 244 0
236 -245 0
227 -245 0
-236 -227 245 0
228 -246 0
237 -246 0
-228 -237 246 0
239 -247 0
224 -247 0
-239 -224 247 0
225 -248 0
240 -248 0
-225 -240 248 0
-249 -245 0
249 245 0
-250 -246 0
250 246 0
-251 -247 0
251 247 0
-252 -248 0
252 248 0
249 -253 0
251 -253 0
-249 -251 253 0
250 -254 0
252 -254 0
-250 -252 254 0
254 -255 0
245 -255 0
-254 -245 255 0
254 -256 0
244 -256 0
-254 -244 256 0
-257 -255 0
257 255 0
253 -258 0
256 -258 0
-253 -256 258 0
257 -259 0
250 -259 0
-257 -250 259 0
-260 -258 0
260 258 0
260 -261 0
259 -261 0
-260 -259 261 0
-262 -261 0
262 261 0
261 -263 0
235 -263 0
-261 -235 263 0
261 -264 0
236 -264 0
-261 -236 264 0
261 -265 0
237 -265 0
-261 -237 265 0
261 -266 0
238 -266 0
-261 -238 266 0
261 -267 0
239 -267 0
-261 -239 267 0
261 -268 0
240 -268 0
-261 -240 268 0
262 -269 0
238 -269 0
-262 -238 269 0
262 -270 0
239 -270 0
-262 -239 270 0
262 -271 0
240 -271 0
-262 -240 271 0
262 -272 0
235 -272 0
-262 -235 272 0
262 -273 0
236 -273 0
-262 -236 273 0
262 -274 0
237 -274 0
-262 -237 274 0
-275 -263 0
275 263 0
-276 -264 0
276 264 0
-277 -265 0
277 265 0
-278 -266 0
278 266 0
-279 -267 0
279 267 0
-280 -268 0
280 268 0
-281 -269 0
281 269 0
-282 -270 0
282 270 0
-283 -271 0
283 271 0
-284 -272 0
284 272 0
-285 -273 0
285 273 0
-286 -274 0
286 274 0
281 -287 0
275 -287 0
-281 -275 287 0
282 -288 0
276 -288 0
-282 -276 288 0
277 -289 0
283 -289 0
-277 -283 289 0
278 -290 0
284 -290 0
-278 -284 290 0
285 -291 0
279 -291 0
-285 -279 291 0
280 -292 0
286 -292 0
-280 -286 292 0
287 -293 0
232 -293 0
-287 -232 293 0
-294 -287 0
294 287 0
233 -295 0
288 -295 0
-233 -288 295 0
-296 -288 0
296 288 0
234 -297 0
289 -297 0
-234 -289 297 0
-298 -289 0
298 289 0
-299 -290 0
299 290 0
-300 -291 0
300 291 0
-301 -292 0
301 292 0
221 -302 0
296 -302 0
-221 -296 302 0
-303 -295 0
303 295 0
-304 -297 0
304 297 0
222 -305 0
298 -305 0
-222 -298 305 0
-306 -302 0
306 302 0
-307 -305 0
307 305 0
303 -308 0
306 -308 0
-303 -306 308 0
304 -309 0
307 -309 0
-304 -307 309 0
309 -310 0
295 -310 0
-309 -295 310 0
309 -311 0
293 -311 0
-309 -293 311 0
-312 -310 0
312 310 0
311 -313 0
308 -313 0
-311 -308 313 0
304 -314 0
312 -314 0
-304 -312 314 0
-315 -313 0
315 313 0
315 -316 0
314 -316 0
-315 -314 316 0
-317 -316 0
317 316 0
316 -318 0
232 -318 0
-316 -232 318 0
233 -319 0
316 -319 0
-233 -316 319 0
234 -320 0
316 -320 0
-234 -316 320 0
316 -321 0
294 -321 0
-316 -294 321 0
316 -322 0
296 -322 0
-316 -296 322 0
316 -323 0
298 -323 0
-316 -298 323 0
317 -324 0
294 -324 0
-317 -294 324 0
317 -325 0
296 -325 0
-317 -296 325 0
317 -326 0
298 -326 0
-317 -298 326 0
232 -327 0
317 -327 0
-232 -317 327 0
233 -328 0
317 -328 0
-233 -317 328 0
234 -329 0
317 -329 0
-234 -317 329 0
-330 -318 0
330 318 0
-331 -319 0
331 319 0
-332 -320 0
332 320 0
-333 -321 0
333 321 0
-334 -322 0
334 322 0
-335 -323 0
335 323 0
-336 -324 0
336 324 0
-337 -325 0
337 325 0
-338 -326 0
338 326 0
-339 -327 0
339 327 0
-340 -328 0
340 328 0
-341 -329 0
341 329 0
330 -342 0
336 -342 0
-330 -336 342 0
331 -343 0
337 -343 0
-331 -337 343 0
338 -344 0
332 -344 0
-338 -332 344 0
333 -345 0
339 -345 0
-333 -339 345 0
334 -346 0
340 -346 0
-334 -340 346 0
335 -347 0
341 -347 0
-335 -341 347 0
-348 -342 0
348 342 0
-349 -343 0
349 343 0
-350 -344 0
350 344 0
-351 -345 0
351 345 0
-352 -346 0
352 346 0
-353 -347 0
353 347 0
-354 -355 0
354 355 0
-356 -357 0
356 357 0
-358 -359 0
358 359 0
-360 -361 0
360 361 0
-362 -363 0
362 363 0
-364 -365 0
364 365 0
-366 -367 0
366 367 0
-368 -369 0
368 369 0
-370 -371 0
370 371 0
-372 -373 0
372 373 0
-374 -375 0
374 375 0
-376 -377 0
376 377 0
361 -378 0
354 -378 0
-361 -354 378 0
354 -379 0
367 -379 0
-354 -367 379 0
354 -380 0
373 -380 0
-354 -373 380 0
363 -381 0
356 -381 0
-363 -356 381 0
369 -382 0
356 -382 0
-369 -356 382 0
375 -383 0
356 -383 0
-375 -356 383 0
358 -384 0
365 -384 0
-358 -365 384 0
358 -385 0
371 -385 0
-358 -371 385 0
358 -386 0
377 -386 0
-358 -377 386 0
361 -387 0
360 -387 0
-361 -360 387 0
360 -388 0
367 -388 0
-360 -367 388 0
360 -389 0
373 -389 0
-360 -373 389 0
357 -390 0
362 -390 0
-357 -362 390 0
363 -391 0
362 -391 0
-363 -362 391 0
369 -392 0
362 -392 0
-369 -362 392 0
375 -393 0
362 -393 0
-375 -362 393 0
364 -394 0
359 -394 0
-364 -359 394 0
364 -395 0
365 -395 0
-364 -365 395 0
364 -396 0
371 -396 0
-364 -371 396 0
364 -397 0
377 -397 0
-364 -377 397 0
366 -398 0
367 -398 0
-366 -367 398 0
366 -399 0
373 -399 0
-366 -373 399 0
368 -400 0
357 -400 0
-368 -357 400 0
368 -401 0
363 -401 0
-368 -363 401 0
368 -402 0
369 -402 0
-368 -369 402 0
375 -403 0
368 -403 0
-375 -368 403 0
370 -404 0
359 -404 0
-370 -359 404 0
370 -405 0
365 -405 0
-370 -365 405 0
370 -406 0
371 -406 0
-370 -371 406 0
370 -407 0
377 -407 0
-370 -377 407 0
372 -408 0
367 -408 0
-372 -367 408 0
372 -409 0
373 -409 0
-372 -373 409 0
369 -410 0
374 -410 0
-369 -374 410 0
357 -411 0
374 -411 0
-357 -374 411 0
363 -412 0
374 -412 0
-363 -374 412 0
375 -413 0
374 -413 0
-375 -374 413 0
371 -414 0
376 -414 0
-371 -376 414 0
359 -415 0
376 -415 0
-359 -376 415 0
365 -416 0
376 -416 0
-365 -376 416 0
376 -417 0
377 -417 0
-376 -377 417 0
-418 -381 0
418 381 0
-419 -382 0
419 382 0
-420 -383 0
420 383 0
-421 -384 0
421 384 0
-422 -385 0
422 385 0
-423 -386 0
423 386 0
-424 -390 0
424 390 0
-425 -391 0
425 391 0
-426 -392 0
426 392 0
-427 -393 0
427 393 0
-428 -394 0
428 394 0
-429 -395 0
429 395 0
-430 -396 0
430 396 0
-431 -397 0
431 397 0
-432 -400 0
432 400 0
-433 -401 0
433 401 0
-434 -402 0
434 402 0
-435 -403 0
435 403 0
-436 -404 0
436 404 0
-437 -405 0
437 405 0
-438 -406 0
438 406 0
-439 -407 0
439 407 0
-440 -410 0
440 410 0
-441 -411 0
441 411 0
-442 -412 0
442 412 0
-443 -413 0
443 413 0
-444 -414 0
444 414 0
-445 -415 0
445 415 0
-446 -416 0
446 416 0
-447 -417 0
447 417 0
418 -448 0
424 -448 0
-418 -424 448 0
421 -449 0
428 -449 0
-421 -428 449 0
419 -450 0
432 -450 0
-419 -432 450 0
426 -451 0
433 -451 0
-426 -433 451 0
422 -452 0
436 -452 0
-422 -436 452 0
430 -453 0
437 -453 0
-430 -437 453 0
440 -454 0
435 -454 0
-440 -435 454 0
441 -455 0
420 -455 0
-441 -420 455 0
442 -456 0
427 -456 0
-442 -427 456 0
444 -457 0
439 -457 0
-444 -439 457 0
445 -458 0
423 -458 0
-445 -423 458 0
431 -459 0
446 -459 0
-431 -446 459 0
449 -460 0
381 -460 0
-449 -381 460 0
449 -461 0
378 -461 0
-449 -378 461 0
429 -462 0
391 -462 0
-429 -391 462 0
429 -463 0
387 -463 0
-429 -387 463 0
382 -464 0
452 -464 0
-382 -452 464 0
379 -465 0
452 -465 0
-379 -452 465 0
392 -466 0
453 -466 0
-392 -453 466 0
388 -467 0
453 -467 0
-388 -453 467 0
438 -468 0
402 -468 0
-438 -402 468 0
438 -469 0
398 -469 0
-438 -398 469 0
410 -470 0
457 -470 0
-410 -457 470 0
408 -471 0
457 -471 0
-408 -457 471 0
383 -472 0
458 -472 0
-383 -458 472 0
380 -473 0
458 -473 0
-380 -458 473 0
393 -474 0
459 -474 0
-393 -459 474 0
389 -475 0
459 -475 0
-389 -459 475 0
403 -476 0
457 -476 0
-403 -457 476 0
399 -477 0
457 -477 0
-399 -457 477 0
447 -478 0
413 -478 0
-447 -413 478 0
447 -479 0
409 -479 0
-447 -409 479 0
-480 -460 0
480 460 0
461 -481 0
448 -481 0
-461 -448 481 0
-482 -462 0
482 462 0
463 -483 0
425 -483 0
-463 -425 483 0
-484 -464 0
484 464 0
450 -485 0
465 -485 0
-450 -465 485 0
-486 -466 0
486 466 0
451 -487 0
467 -487 0
-451 -467 487 0
-488 -468 0
488 468 0
434 -489 0
469 -489 0
-434 -469 489 0
-490 -470 0
490 470 0
471 -491 0
454 -491 0
-471 -454 491 0
-492 -472 0
492 472 0
455 -493 0
473 -493 0
-455 -473 493 0
-494 -474 0
494 474 0
456 -495 0
475 -495 0
-456 -475 495 0
-496 -476 0
496 476 0
454 -497 0
477 -497 0
-454 -477 497 0
-498 -478 0
498 478 0
479 -499 0
443 -499 0
-479 -443 499 0
421 -500 0
480 -500 0
-421 -480 500 0
-501 -481 0
501 481 0
482 -502 0
429 -502 0
-482 -429 502 0
-503 -483 0
503 483 0
422 -504 0
484 -504 0
-422 -484 504 0
-505 -485 0
505 485 0
430 -506 0
486 -506 0
-430 -486 506 0
-507 -487 0
507 487 0
438 -508 0
488 -508 0
-438 -488 508 0
-509 -489 0
509 489 0
444 -510 0
490 -510 0
-444 -490 510 0
-511 -491 0
511 491 0
423 -512 0
492 -512 0
-423 -492 512 0
-513 -493 0
513 493 0
494 -514 0
431 -514 0
-494 -431 514 0
-515 -495 0
515 495 0
496 -516 0
439 -516 0
-496 -439 516 0
-517 -497 0
517 497 0
498 -518 0
447 -518 0
-498 -447 518 0
-519 -499 0
519 499 0
500 -520 0
501 -520 0
-500 -501 520 0
502 -521 0
503 -521 0
-502 -503 521 0
505 -522 0
504 -522 0
-505 -504 522 0
506 -523 0
507 -523 0
-506 -507 523 0
509 -524 0
508 -524 0
-509 -508 524 0
511 -525 0
510 -525 0
-511 -510 525 0
512 -526 0
513 -526 0
-512 -513 526 0
514 -527 0
515 -527 0
-514 -515 527 0
516 -528 0
517 -528 0
-516 -517 528 0
519 -529 0
518 -529 0
-519 -518 529 0
-530 -520 0
530 520 0
-531 -521 0
531 521 0
-532 -522 0
532 522 0
-533 -523 0
533 523 0
-534 -524 0
534 524 0
-535 -525 0
535 525 0
-536 -526 0
536 526 0
-537 -527 0
537 527 0
-538 -528 0
538 528 0
-539 -529 0
539 529 0
530 -540 0
531 -540 0
-530 -531 540 0
-541 -540 0
541 540 0
541 -542 0
530 -542 0
-541 -530 542 0
-543 -542 0
543 542 0
541 -544 0
543 -544 0
-541 -543 544 0
544 -545 0
532 -545 0
-544 -532 545 0
-546 -544 0
546 544 0
-547 -545 0
547 545 0
547 -548 0
546 -548 0
-547 -546 548 0
548 -549 0
547 -549 0
-548 -547 549 0
549 -550 0
533 -550 0
-549 -533 550 0
-551 -550 0
551 550 0
548 -552 0
551 -552 0
-548 -551 552 0
551 -553 0
545 -553 0
-551 -545 553 0
-554 -552 0
554 552 0
-555 -553 0
555 553 0
551 -556 0
555 -556 0
-551 -555 556 0
-557 -556 0
557 556 0
557 -558 0
554 -558 0
-557 -554 558 0
558 -559 0
534 -559 0
-558 -534 559 0
-560 -559 0
560 559 0
560 -561 0
552 -561 0
-560 -552 561 0
557 -562 0
560 -562 0
-557 -560 562 0
-563 -562 0
563 562 0
560 -564 0
563 -564 0
-560 -563 564 0
-565 -564 0
565 564 0
565 -566 0
561 -566 0
-565 -561 566 0
566 -567 0
535 -567 0
-566 -535 567 0
-568 -567 0
568 567 0
561 -569 0
568 -569 0
-561 -568 569 0
565 -570 0
568 -570 0
-565 -568 570 0
-571 -569 0
571 569 0
-572 -570 0
572 570 0
572 -573 0
568 -573 0
-572 -568 573 0
571 -574 0
573 -574 0
-571 -573 574 0
-575 -573 0
575 573 0
574 -576 0
536 -576 0
-574 -536 576 0
-577 -576 0
577 576 0
569 -578 0
577 -578 0
-569 -577 578 0
575 -579 0
577 -579 0
-575 -577 579 0
-580 -578 0
580 578 0
-581 -579 0
581 579 0
580 -582 0
577 -582 0
-580 -577 582 0
577 -583 0
581 -583 0
-577 -581 583 0
-584 -582 0
584 582 0
-585 -583 0
585 583 0
584 -586 0
583 -586 0
-584 -583 586 0
586 -587 0
537 -587 0
-586 -537 587 0
-588 -587 0
588 587 0
588 -589 0
584 -589 0
-588 -584 589 0
585 -590 0
588 -590 0
-585 -588 590 0
-591 -589 0
591 589 0
-592 -590 0
592 590 0
588 -593 0
591 -593 0
-588 -591 593 0
588 -594 0
592 -594 0
-588 -592 594 0
-595 -593 0
595 593 0
-596 -594 0
596 594 0
596 -597 0
593 -597 0
-596 -593 597 0
538 -598 0
597 -598 0
-538 -597 598 0
-599 -598 0
599 598 0
595 -600 0
599 -600 0
-595 -599 600 0
596 -601 0
599 -601 0
-596 -599 601 0
-602 -600 0
602 600 0
-603 -601 0
603 601 0
602 -604 0
599 -604 0
-602 -599 604 0
603 -605 0
599 -605 0
-603 -599 605 0
-606 -604 0
606 604 0
-607 -605 0
607 605 0
606 -608 0
607 -608 0
-606 -607 608 0
608 -609 0
539 -609 0
-608 -539 609 0
-610 -609 0
610 609 0
610 -611 0
606 -611 0
-610 -606 611 0
610 -612 0
607 -612 0
-610 -607 612 0
-613 -611 0
613 611 0
-614 -612 0
614 612 0
610 -615 0
613 -615 0
-610 -613 615 0
610 -616 0
614 -616 0
-610 -614 616 0
-617 -615 0
617 615 0
-618 -616 0
618 616 0
617 -619 0
616 -619 0
-617 -616 619 0
618 -620 0
615 -620 0
-618 -615 620 0
617 -621 0
618 -621 0
-617 -618 621 0
361 -622 0
619 -622 0
-361 -619 622 0
-623 -619 0
623 619 0
619 -624 0
363 -624 0
-619 -363 624 0
619 -625 0
365 -625 0
-619 -365 625 0
355 -626 0
619 -626 0
-355 -619 626 0
619 -627 0
357 -627 0
-619 -357 627 0
619 -628 0
359 -628 0
-619 -359 628 0
620 -629 0
367 -629 0
-620 -367 629 0
-630 -620 0
630 620 0
369 -631 0
620 -631 0
-369 -620 631 0
371 -632 0
620 -632 0
-371 -620 632 0
-633 -621 0
633 621 0
621 -634 0
373 -634 0
-621 -373 634 0
375 -635 0
621 -635 0
-375 -621 635 0
621 -636 0
377 -636 0
-621 -377 636 0
-637 -622 0
637 622 0
355 -638 0
623 -638 0
-355 -623 638 0
357 -639 0
623 -639 0
-357 -623 639 0
623 -640 0
359 -640 0
-623 -359 640 0
361 -641 0
623 -641 0
-361 -623 641 0
363 -642 0
623 -642 0
-363 -623 642 0
623 -643 0
365 -643 0
-623 -365 643 0
-644 -624 0
644 624 0
-645 -625 0
645 625 0
-646 -626 0
646 626 0
-647 -627 0
647 627 0
-648 -628 0
648 628 0
-649 -629 0
649 629 0
630 -650 0
367 -650 0
-630 -367 650 0
369 -651 0
630 -651 0
-369 -630 651 0
371 -652 0
630 -652 0
-371 -630 652 0
-653 -631 0
653 631 0
-654 -632 0
654 632 0
373 -655 0
633 -655 0
-373 -633 655 0
375 -656 0
633 -656 0
-375 -633 656 0
633 -657 0
377 -657 0
-633 -377 657 0
-658 -634 0
658 634 0
-659 -635 0
659 635 0
-660 -636 0
660 636 0
-661 -638 0
661 638 0
-662 -639 0
662 639 0
-663 -640 0
663 640 0
-664 -641 0
664 641 0
-665 -642 0
665 642 0
-666 -643 0
666 643 0
-667 -650 0
667 650 0
-668 -651 0
668 651 0
-669 -652 0
669 652 0
-670 -655 0
670 655 0
-671 -656 0
671 656 0
-672 -657 0
672 657 0
637 -673 0
661 -673 0
-637 -661 673 0
662 -674 0
644 -674 0
-662 -644 674 0
663 -675 0
645 -675 0
-663 -645 675 0
646 -676 0
664 -676 0
-646 -664 676 0
665 -677 0
647 -677 0
-665 -647 677 0
666 -678 0
648 -678 0
-666 -648 678 0
-679 -673 0
679 673 0
-680 -674 0
680 674 0
-681 -675 0
681 675 0
-682 -676 0
682 676 0
-683 -677 0
683 677 0
-684 -678 0
684 678 0
679 -685 0
630 -685 0
-679 -630 685 0
679 -686 0
620 -686 0
-679 -620 686 0
630 -687 0
680 -687 0
-630 -680 687 0
620 -688 0
680 -688 0
-620 -680 688 0
630 -689 0
681 -689 0
-630 -681 689 0
620 -690 0
681 -690 0
-620 -681 690 0
620 -691 0
682 -691 0
-620 -682 691 0
630 -692 0
682 -692 0
-630 -682 692 0
620 -693 0
683 -693 0
-620 -683 693 0
630 -694 0
683 -694 0
-630 -683 694 0
620 -695 0
684 -695 0
-620 -684 695 0
630 -696 0
684 -696 0
-630 -684 696 0
-697 -685 0
697 685 0
-698 -686 0
698 686 0
-699 -687 0
699 687 0
-700 -688 0
700 688 0
-701 -689 0
701 689 0
-702 -690 0
702 690 0
-703 -691 0
703 691 0
-704 -692 0
704 692 0
-705 -693 0
705 693 0
-706 -694 0
706 694 0
-707 -695 0
707 695 0
-708 -696 0
708 696 0
697 -709 0
649 -709 0
-697 -649 709 0
698 -710 0
667 -710 0
-698 -667 710 0
653 -711 0
699 -711 0
-653 -699 711 0
668 -712 0
700 -712 0
-668 -700 712 0
654 -713 0
701 -713 0
-654 -701 713 0
702 -714 0
669 -714 0
-702 -669 714 0
703 -715 0
704 -715 0
-703 -704 715 0
706 -716 0
705 -716 0
-706 -705 716 0
708 -717 0
707 -717 0
-708 -707 717 0
-718 -709 0
718 709 0
-719 -710 0
719 710 0
-720 -711 0
720 711 0
-721 -712 0
721 712 0
-722 -713 0
722 713 0
-723 -714 0
723 714 0
-724 -715 0
724 715 0
-725 -716 0
725 716 0
-726 -717 0
726 717 0
718 -727 0
621 -727 0
-718 -621 727 0
718 -728 0
633 -728 0
-718 -633 728 0
719 -729 0
633 -729 0
-719 -633 729 0
621 -730 0
719 -730 0
-621 -719 730 0
621 -731 0
720 -731 0
-621 -720 731 0
720 -732 0
633 -732 0
-720 -633 732 0
721 -733 0
633 -733 0
-721 -633 733 0
621 -734 0
721 -734 0
-621 -721 734 0
722 -735 0
621 -735 0
-722 -621 735 0
722 -736 0
633 -736 0
-722 -633 736 0
723 -737 0
633 -737 0
-723 -633 737 0
723 -738 0
621 -738 0
-723 -621 738 0
724 -739 0
621 -739 0
-724 -621 739 0
724 -740 0
633 -740 0
-724 -633 740 0
725 -741 0
621 -741 0
-725 -621 741 0
725 -742 0
633 -742 0
-725 -633 742 0
726 -743 0
621 -743 0
-726 -621 743 0
726 -744 0
633 -744 0
-726 -633 744 0
-745 -727 0
745 727 0
-746 -728 0
746 728 0
-747 -729 0
747 729 0
-748 -730 0
748 730 0
-749 -731 0
749 731 0
-750 -732 0
750 732 0
-751 -733 0
751 733 0
-752 -734 0
752 734 0
-753 -735 0
753 735 0
-754 -736 0
754 736 0
-755 -737 0
755 737 0
-756 -738 0
756 738 0
-757 -739 0
757 739 0
-758 -740 0
758 740 0
-759 -741 0
759 741 0
-760 -742 0
760 742 0
-761 -743 0
761 743 0
-762 -744 0
762 744 0
745 -763 0
670 -763 0
-745 -670 763 0
658 -764 0
746 -764 0
-658 -746 764 0
671 -765 0
749 -765 0
-671 -749 765 0
659 -766 0
750 -766 0
-659 -750 766 0
672 -767 0
753 -767 0
-672 -753 767 0
660 -768 0
754 -768 0
-660 -754 768 0
747 -769 0
757 -769 0
-747 -757 769 0
748 -770 0
758 -770 0
-748 -758 770 0
751 -771 0
759 -771 0
-751 -759 771 0
760 -772 0
752 -772 0
-760 -752 772 0
761 -773 0
755 -773 0
-761 -755 773 0
756 -774 0
762 -774 0
-756 -762 774 0
-775 -763 0
775 763 0
-776 -764 0
776 764 0
-777 -765 0
777 765 0
-778 -766 0
778 766 0
-779 -767 0
779 767 0
-780 -768 0
780 768 0
-781 -769 0
781 769 0
-782 -770 0
782 770 0
-783 -771 0
783 771 0
-784 -772 0
784 772 0
-785 -773 0
785 773 0
-786 -774 0
786 774 0
771 -787 0
777 -787 0
-771 -777 787 0
772 -788 0
777 -788 0
-772 -777 788 0
773 -789 0
779 -789 0
-773 -779 789 0
774 -790 0
779 -790 0
-774 -779 790 0
763 -791 0
781 -791 0
-763 -781 791 0
769 -792 0
781 -792 0
-769 -781 792 0
763 -793 0
782 -793 0
-763 -782 793 0
782 -794 0
769 -794 0
-782 -769 794 0
782 -795 0
770 -795 0
-782 -770 795 0
765 -796 0
783 -796 0
-765 -783 796 0
783 -797 0
771 -797 0
-783 -771 797 0
772 -798 0
783 -798 0
-772 -783 798 0
765 -799 0
784 -799 0
-765 -784 799 0
771 -800 0
784 -800 0
-771 -784 800 0
772 -801 0
784 -801 0
-772 -784 801 0
767 -802 0
785 -802 0
-767 -785 802 0
773 -803 0
785 -803 0
-773 -785 803 0
774 -804 0
785 -804 0
-774 -785 804 0
767 -805 0
786 -805 0
-767 -786 805 0
773 -806 0
786 -806 0
-773 -786 806 0
774 -807 0
786 -807 0
-774 -786 807 0
-808 -787 0
808 787 0
-809 -788 0
809 788 0
-810 -789 0
810 789 0
-811 -790 0
811 790 0
-812 -796 0
812 796 0
-813 -797 0
813 797 0
-814 -798 0
814 798 0
-815 -799 0
815 799 0
-816 -800 0
816 800 0
-817 -801 0
817 801 0
-818 -802 0
818 802 0
-819 -803 0
819 803 0
-820 -804 0
820 804 0
-821 -805 0
821 805 0
-822 -806 0
822 806 0
-823 -807 0
823 807 0
812 -824 0
808 -824 0
-812 -808 824 0
809 -825 0
815 -825 0
-809 -815 825 0
814 -826 0
816 -826 0
-814 -816 826 0
810 -827 0
818 -827 0
-810 -818 827 0
821 -828 0
811 -828 0
-821 -811 828 0
820 -829 0
822 -829 0
-820 -822 829 0
827 -830 0
796 -830 0
-827 -796 830 0
827 -831 0
791 -831 0
-827 -791 831 0
797 -832 0
819 -832 0
-797 -819 832 0
819 -833 0
792 -833 0
-819 -792 833 0
799 -834 0
828 -834 0
-799 -828 834 0
793 -835 0
828 -835 0
-793 -828 835 0
800 -836 0
829 -836 0
-800 -829 836 0
794 -837 0
829 -837 0
-794 -829 837 0
823 -838 0
801 -838 0
-823 -801 838 0
823 -839 0
795 -839 0
-823 -795 839 0
-840 -830 0
840 830 0
824 -841 0
831 -841 0
-824 -831 841 0
-842 -832 0
842 832 0
833 -843 0
813 -843 0
-833 -813 843 0
-844 -834 0
844 834 0
825 -845 0
835 -845 0
-825 -835 845 0
-846 -836 0
846 836 0
826 -847 0
837 -847 0
-826 -837 847 0
-848 -838 0
848 838 0
817 -849 0
839 -849 0
-817 -839 849 0
840 -850 0
818 -850 0
-840 -818 850 0
-851 -841 0
851 841 0
842 -852 0
819 -852 0
-842 -819 852 0
-853 -843 0
853 843 0
821 -854 0
844 -854 0
-821 -844 854 0
-855 -845 0
855 845 0
846 -856 0
822 -856 0
-846 -822 856 0
-857 -847 0
857 847 0
848 -858 0
823 -858 0
-848 -823 858 0
-859 -849 0
859 849 0
850 -860 0
851 -860 0
-850 -851 860 0
852 -861 0
853 -861 0
-852 -853 861 0
854 -862 0
855 -862 0
-854 -855 862 0
857 -863 0
856 -863 0
-857 -856 863 0
859 -864 0
858 -864 0
-859 -858 864 0
-865 -860 0
865 860 0
-866 -861 0
866 861 0
-867 -862 0
867 862 0
-868 -863 0
868 863 0
-869 -864 0
869 864 0
866 -870 0
865 -870 0
-866 -865 870 0
-871 -870 0
871 870 0
865 -872 0
871 -872 0
-865 -871 872 0
-873 -872 0
873 872 0
871 -874 0
873 -874 0
-871 -873 874 0
874 -875 0
867 -875 0
-874 -867 875 0
-876 -874 0
876 874 0
-877 -875 0
877 875 0
877 -878 0
876 -878 0
-877 -876 878 0
877 -879 0
878 -879 0
-877 -878 879 0
879 -880 0
868 -880 0
-879 -868 880 0
-881 -880 0
881 880 0
881 -882 0
878 -882 0
-881 -878 882 0
881 -883 0
875 -883 0
-881 -875 883 0
-884 -882 0
884 882 0
-885 -883 0
885 883 0
885 -886 0
881 -886 0
-885 -881 886 0
-887 -886 0
887 886 0
887 -888 0
884 -888 0
-887 -884 888 0
869 -889 0
888 -889 0
-869 -888 889 0
-890 -889 0
890 889 0
890 -891 0
882 -891 0
-890 -882 891 0
890 -892 0
887 -892 0
-890 -887 892 0
-893 -891 0
893 891 0
-894 -892 0
894 892 0
890 -895 0
894 -895 0
-890 -894 895 0
891 -896 0
895 -896 0
-891 -895 896 0
-897 -895 0
897 895 0
781 -898 0
896 -898 0
-781 -896 898 0
-899 -896 0
899 896 0
783 -900 0
896 -900 0
-783 -896 900 0
785 -901 0
896 -901 0
-785 -896 901 0
775 -902 0
896 -902 0
-775 -896 902 0
777 -903 0
896 -903 0
-777 -896 903 0
896 -904 0
779 -904 0
-896 -779 904 0
893 -905 0
897 -905 0
-893 -897 905 0
-906 -898 0
906 898 0
899 -907 0
775 -907 0
-899 -775 907 0
899 -908 0
777 -908 0
-899 -777 908 0
899 -909 0
779 -909 0
-899 -779 909 0
899 -910 0
781 -910 0
-899 -781 910 0
899 -911 0
783 -911 0
-899 -783 911 0
899 -912 0
785 -912 0
-899 -785 912 0
-913 -900 0
913 900 0
-914 -901 0
914 901 0
-915 -902 0
915 902 0
-916 -903 0
916 903 0
-917 -904 0
917 904 0
-918 -905 0
918 905 0
782 -919 0
905 -919 0
-782 -905 919 0
905 -920 0
784 -920 0
-905 -784 920 0
786 -921 0
905 -921 0
-786 -905 921 0
-922 -907 0
922 907 0
-923 -908 0
923 908 0
-924 -909 0
924 909 0
-925 -910 0
925 910 0
-926 -911 0
926 911 0
-927 -912 0
927 912 0
782 -928 0
918 -928 0
-782 -918 928 0
918 -929 0
784 -929 0
-918 -784 929 0
786 -930 0
918 -930 0
-786 -918 930 0
-931 -919 0
931 919 0
-932 -920 0
932 920 0
-933 -921 0
933 921 0
906 -934 0
922 -934 0
-906 -922 934 0
913 -935 0
923 -935 0
-913 -923 935 0
914 -936 0
924 -936 0
-914 -924 936 0
915 -937 0
925 -937 0
-915 -925 937 0
916 -938 0
926 -938 0
-916 -926 938 0
917 -939 0
927 -939 0
-917 -927 939 0
-940 -928 0
940 928 0
-941 -929 0
941 929 0
-942 -930 0
942 930 0
-943 -934 0
943 934 0
-944 -935 0
944 935 0
-945 -936 0
945 936 0
-946 -937 0
946 937 0
-947 -938 0
947 938 0
-948 -939 0
948 939 0
905 -949 0
943 -949 0
-905 -943 949 0
943 -950 0
918 -950 0
-943 -918 950 0
905 -951 0
944 -951 0
-905 -944 951 0
918 -952 0
944 -952 0
-918 -944 952 0
945 -953 0
905 -953 0
-945 -905 953 0
945 -954 0
918 -954 0
-945 -918 954 0
946 -955 0
918 -955 0
-946 -918 955 0
905 -956 0
946 -956 0
-905 -946 956 0
947 -957 0
918 -957 0
-947 -918 957 0
947 -958 0
905 -958 0
-947 -905 958 0
948 -959 0
918 -959 0
-948 -918 959 0
905 -960 0
948 -960 0
-905 -948 960 0
-961 -949 0
961 949 0
-962 -950 0
962 950 0
-963 -951 0
963 951 0
-964 -952 0
964 952 0
-965 -953 0
965 953 0
-966 -954 0
966 954 0
-967 -955 0
967 955 0
-968 -956 0
968 956 0
-969 -957 0
969 957 0
-970 -958 0
970 958 0
-971 -959 0
971 959 0
-972 -960 0
972 960 0
961 -973 0
940 -973 0
-961 -940 973 0
931 -974 0
962 -974 0
-931 -962 974 0
941 -975 0
963 -975 0
-941 -963 975 0
964 -976 0
932 -976 0
-964 -932 976 0
965 -977 0
942 -977 0
-965 -942 977 0
933 -978 0
966 -978 0
-933 -966 978 0
967 -979 0
968 -979 0
-967 -968 979 0
970 -980 0
969 -980 0
-970 -969 980 0
971 -981 0
972 -981 0
-971 -972 981 0
-982 -973 0
982 973 0
-983 -974 0
983 974 0
-984 -975 0
984 975 0
-985 -976 0
985 976 0
-986 -977 0
986 977 0
-987 -978 0
987 978 0
-988 -979 0
988 979 0
-989 -980 0
989 980 0
-990 -981 0
990 981 0
980 -991 0
984 -991 0
-980 -984 991 0
986 -992 0
981 -992 0
-986 -981 992 0
988 -993 0
973 -993 0
-988 -973 993 0
988 -994 0
979 -994 0
-988 -979 994 0
989 -995 0
975 -995 0
-989 -975 995 0
980 -996 0
989 -996 0
-980 -989 996 0
990 -997 0
977 -997 0
-990 -977 997 0
990 -998 0
981 -998 0
-990 -981 998 0
-999 -991 0
999 991 0
-1000 -992 0
1000 992 0
-1001 -995 0
1001 995 0
-1002 -996 0
1002 996 0
-1003 -997 0
1003 997 0
-1004 -998 0
1004 998 0
999 -1005 0
1001 -1005 0
-999 -1001 1005 0
1000 -1006 0
1003 -1006 0
-1000 -1003 1006 0
1006 -1007 0
995 -1007 0
-1006 -995 1007 0
1006 -1008 0
993 -1008 0
-1006 -993 1008 0
1004 -1009 0
996 -1009 0
-1004 -996 1009 0
994 -1010 0
1004 -1010 0
-994 -1004 1010 0
-1011 -1007 0
1011 1007 0
1005 -1012 0
1008 -1012 0
-1005 -1008 1012 0
-1013 -1009 0
1013 1009 0
1010 -1014 0
1002 -1014 0
-1010 -1002 1014 0
1011 -1015 0
1003 -1015 0
-1011 -1003 1015 0
-1016 -1012 0
1016 1012 0
1013 -1017 0
1004 -1017 0
-1013 -1004 1017 0
-1018 -1014 0
1018 1014 0
1015 -1019 0
1016 -1019 0
-1015 -1016 1019 0
1018 -1020 0
1017 -1020 0
-1018 -1017 1020 0
-1021 -1019 0
1021 1019 0
-1022 -1020 0
1022 1020 0
1021 -1023 0
1022 -1023 0
-1021 -1022 1023 0
-1024 -1023 0
1024 1023 0
1024 -1025 0
1021 -1025 0
-1024 -1021 1025 0
-1026 -1025 0
1026 1025 0
1024 -1027 0
1026 -1027 0
-1024 -1026 1027 0
988 -1028 0
1027 -1028 0
-988 -1027 1028 0
-1029 -1027 0
1029 1027 0
989 -1030 0
1027 -1030 0
-989 -1027 1030 0
990 -1031 0
1027 -1031 0
-990 -1027 1031 0
982 -1032 0
1027 -1032 0
-982 -1027 1032 0
984 -1033 0
1027 -1033 0
-984 -1027 1033 0
986 -1034 0
1027 -1034 0
-986 -1027 1034 0
-1035 -1028 0
1035 1028 0
982 -1036 0
1029 -1036 0
-982 -1029 1036 0
984 -1037 0
1029 -1037 0
-984 -1029 1037 0
986 -1038 0
1029 -1038 0
-986 -1029 1038 0
988 -1039 0
1029 -1039 0
-988 -1029 1039 0
989 -1040 0
1029 -1040 0
-989 -1029 1040 0
990 -1041 0
1029 -1041 0
-990 -1029 1041 0
-1042 -1030 0
1042 1030 0
-1043 -1031 0
1043 1031 0
-1044 -1032 0
1044 1032 0
-1045 -1033 0
1045 1033 0
-1046 -1034 0
1046 1034 0
-1047 -1036 0
1047 1036 0
-1048 -1037 0
1048 1037 0
-1049 -1038 0
1049 1038 0
-1050 -1039 0
1050 1039 0
-1051 -1040 0
1051 1040 0
-1052 -1041 0
1052 1041 0
1047 -1053 0
1035 -1053 0
-1047 -1035 1053 0
1048 -1054 0
1042 -1054 0
-1048 -1042 1054 0
1043 -1055 0
1049 -1055 0
-1043 -1049 1055 0
1050 -1056 0
1044 -1056 0
-1050 -1044 1056 0
1051 -1057 0
1045 -1057 0
-1051 -1045 1057 0
1052 -1058 0
1046 -1058 0
-1052 -1046 1058 0
-1059 -1053 0
1059 1053 0
-1060 -1054 0
1060 1054 0
-1061 -1055 0
1061 1055 0
-1062 -1056 0
1062 1056 0
-1063 -1057 0
1063 1057 0
-1064 -1058 0
1064 1058 0
-25 355 0
25 -355 0
-2 357 0
2 -357 0
-4 359 0
4 -359 0
-6 361 0
6 -361 0
-8 363 0
8 -363 0
-10 365 0
10 -365 0
-12 367 0
12 -367 0
-14 369 0
14 -369 0
-16 371 0
16 -371 0
-18 373 0
18 -373 0
-20 375 0
20 -375 0
-22 377 0
22 -377 0
-348 -1059 -1065 0
348 1059 -1065 0
348 -1059 1065 0
-348 1059 1065 0
-349 -1060 -1066 0
349 1060 -1066 0
349 -1060 1066 0
-349 1060 1066 0
-350 -1061 -1067 0
350 1061 -1067 0
350 -1061 1067 0
-350 1061 1067 0
-351 -1062 -1068 0
351 1062 -1068 0
351 -1062 1068 0
-351 1062 1068 0
-352 -1063 -1069 0
352 1063 -1069 0
352 -1063 1069 0
-352 1063 1069 0
-353 -1064 -1070 0
353 1064 -1070 0
353 -1064 1070 0
-353 1064 1070 0
-299 -983 -1071 0
299 983 -1071 0
299 -983 1071 0
-299 983 1071 0
-300 -985 -1072 0
300 985 -1072 0
300 -985 1072 0
-300 985 1072 0
-301 -987 -1073 0
301 987 -1073 0
301 -987 1073 0
-301 987 1073 0
-241 -776 -1074 0
241 776 -1074 0
241 -776 1074 0
-241 776 1074 0
-242 -778 -1075 0
242 778 -1075 0
242 -778 1075 0
-242 778 1075 0
-243 -780 -1076 0
243 780 -1076 0
243 -780 1076 0
-243 780 1076 0
1065 1066 1067 1068 1069 1070 1071 1072 1073 1074 1075 1076 0
